8574
11000100001011010011
15 18 19 10 12 13 12 5 15 1 5 10 18 13 0 13 12 18 5 19 0 0 10 19 10 10 0 19 10 15 1 1 19 19 15 5 13 13 10 0 18 13 13 13 12 5 5 5 5 15 15 5 10 10 10 10 13 0 18 12 13 5 5 15 15 15 10 19 19 1 15 0 0 0 10 15 19 19 19 19 19 5 12 12 13 13 18 5 12 1 13 18 18 18 18 18 13 18 13 13 